      72       76 
      50       90 
       6       86 
      59       54 
      39       65 
      10       13 
      28       31 
      24       61 
      98       77 
      80        4 
      19       36 
      27       74 
      82       60 
      71       91 
      22       42 
      32       89 
      75       64 
      87       33 
      93       97 
      18       11 
      88       66 
      16       95 
       5       34 
      67       94 
      68       73 
       1       53 
      83       56 
      14       44 
      46       26 
       9       20 
      79       41 
      57       35 
      49       81 
      99        8 
      70      100 
      29       37 
      45       47 
      51       40 
       2       15 
      43       69 
      92       38 
      21       63 
      84       23 
       7       12 
      62       85 
      58       96 
      52       25 
      17       48 
       3       55 
      78        0 
      30        0 
